;; sequence(s): A21229
;; terms: 1 19 248 2786 28983 288273 2786566 26424112 247232645 2291004287 21080414004 192953358078 1759187655187 15990940940461 145026232803362 1312990445670284 11871194464243809 107220713350935195
;; small program: loop(loop2(((2 * (((x + x) + x) + y)) - 1) + x, y + y, y, 1, 2) + loop((x + x) + x, 2, x), x, 1)
;; fast program: loop((loop2(((2 * (((x + x) + x) + y)) - 1) + x, y + y, y, 1, 2) + (2 * (2 * (x + x)))) + x, x, 1)
(set-logic UFNIA)
(declare-fun f1 (Int Int) Int)
(declare-fun g1 (Int Int) Int)
(declare-fun h1 (Int Int) Int)
(declare-fun i1 () Int)
(declare-fun j1 () Int)
(declare-fun u1 (Int Int Int) Int)
(declare-fun v1 (Int Int Int) Int)
(declare-fun w1 (Int Int) Int)
(declare-fun f2 (Int) Int)
(declare-fun g2 () Int)
(declare-fun h2 (Int) Int)
(declare-fun u2 (Int Int) Int)
(declare-fun v2 (Int) Int)
(declare-fun f0 (Int Int) Int)
(declare-fun g0 (Int) Int)
(declare-fun h0 () Int)
(declare-fun u0 (Int Int) Int)
(declare-fun v0 (Int) Int)
(declare-fun small (Int) Int)
(declare-fun f4 (Int Int) Int)
(declare-fun g4 (Int Int) Int)
(declare-fun h4 (Int Int) Int)
(declare-fun i4 () Int)
(declare-fun j4 () Int)
(declare-fun u4 (Int Int Int) Int)
(declare-fun v4 (Int Int Int) Int)
(declare-fun w4 (Int Int) Int)
(declare-fun f3 (Int Int) Int)
(declare-fun g3 (Int) Int)
(declare-fun h3 () Int)
(declare-fun u3 (Int Int) Int)
(declare-fun v3 (Int) Int)
(declare-fun fast (Int) Int)
(assert (forall ((x Int) (y Int)) (= (f1 x y) (+ (- (* 2 (+ (+ (+ x x) x) y)) 1) x))))
(assert (forall ((x Int) (y Int)) (= (g1 x y) (+ y y))))
(assert (forall ((x Int) (y Int)) (= (h1 x y) y)))
(assert (= i1 1))
(assert (= j1 2))
(assert (forall ((x Int) (y Int) (z Int)) (= (u1 x y z) (ite (<= x 0) y (f1 (u1 (- x 1) y z) (v1 (- x 1) y z))))))
(assert (forall ((x Int) (y Int) (z Int)) (= (v1 x y z) (ite (<= x 0) z (g1 (u1 (- x 1) y z) (v1 (- x 1) y z))))))
(assert (forall ((x Int) (y Int)) (= (w1 x y) (u1 (h1 x y) i1 j1))))
(assert (forall ((x Int)) (= (f2 x) (+ (+ x x) x))))
(assert (= g2 2))
(assert (forall ((x Int)) (= (h2 x) x)))
(assert (forall ((x Int) (y Int)) (= (u2 x y) (ite (<= x 0) y (f2 (u2 (- x 1) y))))))
(assert (forall ((x Int)) (= (v2 x) (u2 g2 (h2 x)))))
(assert (forall ((x Int) (y Int)) (= (f0 x y) (+ (w1 x y) (v2 x)))))
(assert (forall ((x Int)) (= (g0 x) x)))
(assert (= h0 1))
(assert (forall ((x Int) (y Int)) (= (u0 x y) (ite (<= x 0) y (f0 (u0 (- x 1) y) x)))))
(assert (forall ((x Int)) (= (v0 x) (u0 (g0 x) h0))))
(assert (forall ((x Int)) (= (small x) (v0 x))))
(assert (forall ((x Int) (y Int)) (= (f4 x y) (+ (- (* 2 (+ (+ (+ x x) x) y)) 1) x))))
(assert (forall ((x Int) (y Int)) (= (g4 x y) (+ y y))))
(assert (forall ((x Int) (y Int)) (= (h4 x y) y)))
(assert (= i4 1))
(assert (= j4 2))
(assert (forall ((x Int) (y Int) (z Int)) (= (u4 x y z) (ite (<= x 0) y (f4 (u4 (- x 1) y z) (v4 (- x 1) y z))))))
(assert (forall ((x Int) (y Int) (z Int)) (= (v4 x y z) (ite (<= x 0) z (g4 (u4 (- x 1) y z) (v4 (- x 1) y z))))))
(assert (forall ((x Int) (y Int)) (= (w4 x y) (u4 (h4 x y) i4 j4))))
(assert (forall ((x Int) (y Int)) (= (f3 x y) (+ (+ (w4 x y) (* 2 (* 2 (+ x x)))) x))))
(assert (forall ((x Int)) (= (g3 x) x)))
(assert (= h3 1))
(assert (forall ((x Int) (y Int)) (= (u3 x y) (ite (<= x 0) y (f3 (u3 (- x 1) y) x)))))
(assert (forall ((x Int)) (= (v3 x) (u3 (g3 x) h3))))
(assert (forall ((x Int)) (= (fast x) (v3 x))))
(assert (exists ((c Int)) (and (>= c 0) (not (= (small c) (fast c))))))
(check-sat)
